Grasp exp. instance_n_15_m_5_id_2.lp tipoLifted 0 szPool 5 nIteration 100 alpha 0.4 
Academic license - for non-commercial use only
Read LP format model from file ../input/instancesGenerated/instance_n_15_m_5_id_2.lp
Reading time = 0.00 seconds
: 5 rows, 15 columns, 75 nonzeros
Optimize a model with 5 rows, 15 columns and 75 nonzeros
Variable types: 0 continuous, 15 integer (15 binary)
Coefficient statistics:
  Matrix range     [1e+00, 1e+01]
  Objective range  [1e+00, 1e+01]
  Bounds range     [1e+00, 1e+00]
  RHS range        [4e+01, 5e+01]
Found heuristic solution: objective 36.0000000

Explored 0 nodes (0 simplex iterations) in 0.00 seconds
Thread count was 1 (of 8 available processors)

Solution count 1: 36 
No other solutions better than 0

Solution limit reached
Best objective 3.600000000000e+01, best bound -, gap -
C_1:	 6.00 x_1  = 1.000000 + 6.00 x_2  = 0.000000 + 1.00 x_3  = 0.000000 + 4.00 x_4  = 1.000000 + 5.00 x_5  = 0.101545 + 9.00 x_6  = 0.253863 + 9.00 x_7  = 0.112583 + 2.00 x_8  = 1.000000 + 4.00 x_9  = 0.000000 + 1.00 x_10  = 1.000000 + 6.00 x_11  = 1.000000 + 2.00 x_12  = 0.000000 + 7.00 x_13  = 1.000000 + 8.00 x_14  = 0.024283 + 9.00 x_15  = 1.000000 <= 39.00
C_2:	 4.00 x_1  = 1.000000 + 9.00 x_2  = 0.000000 + 2.00 x_3  = 0.000000 + 7.00 x_4  = 1.000000 + 8.00 x_5  = 0.101545 + 7.00 x_6  = 0.253863 + 3.00 x_7  = 0.112583 + 7.00 x_8  = 1.000000 + 7.00 x_9  = 0.000000 + 10.00 x_10  = 1.000000 + 6.00 x_11  = 1.000000 + 5.00 x_12  = 0.000000 + 2.00 x_13  = 1.000000 + 3.00 x_14  = 0.024283 + 1.00 x_15  = 1.000000 <= 40.00
C_3:	 8.00 x_1  = 1.000000 + 9.00 x_2  = 0.000000 + 8.00 x_3  = 0.000000 + 1.00 x_4  = 1.000000 + 4.00 x_5  = 0.101545 + 2.00 x_6  = 0.253863 + 9.00 x_7  = 0.112583 + 5.00 x_8  = 1.000000 + 5.00 x_9  = 0.000000 + 4.00 x_10  = 1.000000 + 5.00 x_11  = 1.000000 + 3.00 x_12  = 0.000000 + 5.00 x_13  = 1.000000 + 3.00 x_14  = 0.024283 + 10.00 x_15  = 1.000000 <= 40.00
C_4:	 6.00 x_1  = 1.000000 + 7.00 x_2  = 0.000000 + 8.00 x_3  = 0.000000 + 7.00 x_4  = 1.000000 + 3.00 x_5  = 0.101545 + 7.00 x_6  = 0.253863 + 6.00 x_7  = 0.112583 + 7.00 x_8  = 1.000000 + 5.00 x_9  = 0.000000 + 2.00 x_10  = 1.000000 + 9.00 x_11  = 1.000000 + 1.00 x_12  = 0.000000 + 7.00 x_13  = 1.000000 + 10.00 x_14  = 0.024283 + 3.00 x_15  = 1.000000 <= 44.00
C_5:	 9.00 x_1  = 1.000000 + 9.00 x_2  = 0.000000 + 3.00 x_3  = 0.000000 + 7.00 x_4  = 1.000000 + 9.00 x_5  = 0.101545 + 9.00 x_6  = 0.253863 + 10.00 x_7  = 0.112583 + 10.00 x_8  = 1.000000 + 3.00 x_9  = 0.000000 + 7.00 x_10  = 1.000000 + 3.00 x_11  = 1.000000 + 9.00 x_12  = 0.000000 + 9.00 x_13  = 1.000000 + 10.00 x_14  = 0.024283 + 1.00 x_15  = 1.000000 <= 54.00
Solution initial: 64.344371 
Number Constraints Used in Cover:5
GRASP Method!
Number cuts repeat: 0
value: 64.344371
Number Constraints Used in Cover:10
GRASP Method!
Number cuts repeat: 0
value: 64.344371
Number Constraints Used in Cover:22
GRASP Method!
Number cuts repeat: 0
value: 64.344371
Number Constraints Used in Cover:31
GRASP Method!
Number cuts repeat: 0
value: 63.920306
Number Constraints Used in Cover:52
GRASP Method!
Number cuts repeat: 0
value: 63.920306
Number Constraints Used in Cover:62
GRASP Method!
Number cuts repeat: 0
value: 63.920306
Number Constraints Used in Cover:79
GRASP Method!
Number cuts repeat: 0
value: 63.920306
Number Constraints Used in Cover:94
GRASP Method!
Number cuts repeat: 0
value: 63.920306
Number Constraints Used in Cover:98
GRASP Method!
Number cuts repeat: 0
value: 63.920306
Number Constraints Used in Cover:104
GRASP Method!
Number cuts repeat: 0
value: 63.920306
Number Constraints Used in Cover:116
GRASP Method!
Number cuts repeat: 0
value: 63.920306
Number Constraints Used in Cover:123
GRASP Method!
Number cuts repeat: 0
value: 63.920306
Number Constraints Used in Cover:136
GRASP Method!
Number cuts repeat: 0
value: 63.920306
Number Constraints Used in Cover:144
GRASP Method!
Number cuts repeat: 0
value: 63.920306
Number Constraints Used in Cover:157
GRASP Method!
Number cuts repeat: 0
value: 63.920306
Number Constraints Used in Cover:164
GRASP Method!
Number cuts repeat: 0
value: 63.920306
Number Constraints Used in Cover:168
GRASP Method!
Number cuts repeat: 0
value: 63.920306
Number Constraints Used in Cover:177
GRASP Method!
Number cuts repeat: 0
value: 63.920306
Number Constraints Used in Cover:182
GRASP Method!
Number cuts repeat: 0
value: 63.920306
Number Constraints Used in Cover:188
GRASP Method!
Number cuts repeat: 0
value: 63.920306
Number Constraints Used in Cover:190
GRASP Method!
Number cuts repeat: 0
value: 63.920306
Number Constraints Used in Cover:195
GRASP Method!
Number cuts repeat: 0
value: 63.920306
Number Constraints Used in Cover:196
GRASP Method!
Number cuts repeat: 0
value: 63.920306
Number Constraints Used in Cover:205
GRASP Method!
Number cuts repeat: 0
value: 63.920306
Number Constraints Used in Cover:214
GRASP Method!
Number cuts repeat: 0
value: 63.920306
Number Constraints Used in Cover:221
GRASP Method!
Number cuts repeat: 0
value: 63.920306
Number Constraints Used in Cover:231
GRASP Method!
Number cuts repeat: 0
value: 63.920306
Number Constraints Used in Cover:246
GRASP Method!
Number cuts repeat: 0
value: 63.920306
Number Constraints Used in Cover:256
GRASP Method!
Number cuts repeat: 0
value: 63.920306
Number Constraints Used in Cover:263
GRASP Method!
Number cuts repeat: 0
value: 63.920306
Number Constraints Used in Cover:278
GRASP Method!
Number cuts repeat: 0
value: 63.920306
Number Constraints Used in Cover:282
GRASP Method!
Number cuts repeat: 0
value: 63.920306
Number Constraints Used in Cover:287
GRASP Method!
Number cuts repeat: 0
value: 63.920306
Number Constraints Used in Cover:296
GRASP Method!
Number cuts repeat: 0
value: 63.920306
Number Constraints Used in Cover:310
GRASP Method!
Number cuts repeat: 0
value: 63.920306
Number Constraints Used in Cover:321
GRASP Method!
Number cuts repeat: 0
value: 63.920306
Number Constraints Used in Cover:328
GRASP Method!
Number cuts repeat: 0
value: 63.920306
Number Constraints Used in Cover:335
GRASP Method!
Number cuts repeat: 0
value: 63.920306
Number Constraints Used in Cover:348
GRASP Method!
Number cuts repeat: 0
value: 63.920306
Number Constraints Used in Cover:365
GRASP Method!
Number cuts repeat: 0
value: 63.920306
Number Constraints Used in Cover:371
GRASP Method!
Number cuts repeat: 0
value: 63.920306
Number Constraints Used in Cover:378
GRASP Method!
Number cuts repeat: 0
value: 63.920306
Number Constraints Used in Cover:390
GRASP Method!
Number cuts repeat: 0
value: 63.920306
Number Constraints Used in Cover:396
GRASP Method!
Number cuts repeat: 0
value: 63.920306
Number Constraints Used in Cover:400
GRASP Method!
Number cuts repeat: 0
value: 63.920306
Number Constraints Used in Cover:409
GRASP Method!
Number cuts repeat: 0
value: 63.920306
Number Constraints Used in Cover:419
GRASP Method!
Number cuts repeat: 0
value: 63.920306
Number Constraints Used in Cover:425
GRASP Method!
Number cuts repeat: 0
value: 63.920306
Number Constraints Used in Cover:428
GRASP Method!
Number cuts repeat: 0
value: 63.920306
Number Constraints Used in Cover:439
GRASP Method!
Number cuts repeat: 0
value: 63.920306
Number Constraints Used in Cover:446
GRASP Method!
Number cuts repeat: 0
value: 63.920306
Number Constraints Used in Cover:456
GRASP Method!
Number cuts repeat: 0
value: 63.920306
Number Constraints Used in Cover:469
GRASP Method!
Number cuts repeat: 0
value: 63.920306
Number Constraints Used in Cover:474
GRASP Method!
Number cuts repeat: 0
value: 63.920306
Number Constraints Used in Cover:480
GRASP Method!
Number cuts repeat: 0
value: 63.920306
Number Constraints Used in Cover:484
GRASP Method!
Number cuts repeat: 0
value: 63.920306
Number Constraints Used in Cover:491
GRASP Method!
Number cuts repeat: 0
value: 63.920306
Number Constraints Used in Cover:497
GRASP Method!
Number cuts repeat: 0
value: 63.920306
Number Constraints Used in Cover:504
GRASP Method!
Number cuts repeat: 0
value: 63.920306
Number Constraints Used in Cover:505
GRASP Method!
Number cuts repeat: 0
value: 63.920306
Number Constraints Used in Cover:507
GRASP Method!
Number cuts repeat: 0
value: 63.920306
Number Constraints Used in Cover:510
GRASP Method!
Number cuts repeat: 0
value: 63.920306
Number Constraints Used in Cover:516
GRASP Method!
Number cuts repeat: 0
value: 63.920306
Number Constraints Used in Cover:518
GRASP Method!
Number cuts repeat: 0
value: 63.920306
Number Constraints Used in Cover:530
GRASP Method!
Number cuts repeat: 0
value: 63.920306
Number Constraints Used in Cover:533
GRASP Method!
Number cuts repeat: 0
value: 63.920306
Number Constraints Used in Cover:540
GRASP Method!
Number cuts repeat: 0
value: 63.920306
Number Constraints Used in Cover:546
GRASP Method!
Number cuts repeat: 0
value: 63.920306
Number Constraints Used in Cover:549
GRASP Method!
Number cuts repeat: 0
value: 63.920306
Number Constraints Used in Cover:550
GRASP Method!
Number cuts repeat: 0
value: 63.920306
Number Constraints Used in Cover:552
GRASP Method!
Number cuts repeat: 0
value: 63.920306
Number Constraints Used in Cover:555
GRASP Method!
Number cuts repeat: 0
value: 63.920306
Number Constraints Used in Cover:558
GRASP Method!
Number cuts repeat: 0
value: 63.920306
Number Constraints Used in Cover:565
GRASP Method!
Number cuts repeat: 0
value: 63.920306
Number Constraints Used in Cover:565
GRASP Method!
Number cuts repeat: 0
value: 63.920306
Number Constraints Used in Cover:570
GRASP Method!
Number cuts repeat: 0
value: 63.920306
Number Constraints Used in Cover:579
GRASP Method!
Number cuts repeat: 0
value: 63.920306
Number Constraints Used in Cover:584
GRASP Method!
Number cuts repeat: 0
value: 63.920306
Number Constraints Used in Cover:588
GRASP Method!
Number cuts repeat: 0
value: 63.774890
Number Constraints Used in Cover:593
GRASP Method!
Number cuts repeat: 0
value: 63.774890
Number Constraints Used in Cover:612
GRASP Method!
Number cuts repeat: 0
value: 63.774890
Number Constraints Used in Cover:631
GRASP Method!
Number cuts repeat: 0
value: 63.774890
Number Constraints Used in Cover:650
GRASP Method!
Number cuts repeat: 0
value: 63.774890
Number Constraints Used in Cover:667
GRASP Method!
Number cuts repeat: 0
value: 63.774890
Number Constraints Used in Cover:678
GRASP Method!
Number cuts repeat: 0
value: 63.774890
Number Constraints Used in Cover:693
GRASP Method!
Number cuts repeat: 0
value: 63.774890
Number Constraints Used in Cover:710
GRASP Method!
Number cuts repeat: 0
value: 63.774890
Number Constraints Used in Cover:721
GRASP Method!
Number cuts repeat: 0
value: 63.774890
Number Constraints Used in Cover:736
GRASP Method!
Number cuts repeat: 0
value: 63.774890
Number Constraints Used in Cover:746
GRASP Method!
Number cuts repeat: 0
value: 63.774890
Number Constraints Used in Cover:763
GRASP Method!
Number cuts repeat: 0
value: 63.774890
Number Cuts Final: 770
